NAME : n80w180.001.551.tour
COMMENT : Length = 551
COMMENT : Found by LKH [Keld Helsgaun] Tue May  2 05:19:07 2017
TYPE : TOUR
DIMENSION : 81
TOUR_SECTION
1
22
53
67
9
78
12
33
32
73
19
7
43
14
28
59
44
5
4
61
37
56
29
77
39
18
47
35
20
41
45
58
27
49
23
8
24
76
66
42
21
13
10
80
60
38
72
15
79
68
26
64
17
31
71
70
55
51
25
2
75
6
48
62
34
16
50
3
65
63
36
30
46
11
40
69
52
74
57
81
54
-1
EOF
